units metal 
dimension 3 
boundary p p p
atom_style atomic
atom_modify map array

# Number of box replicates
variable nr equal 20

# File names
variable outdata0 string "WMo_ref.data"
variable outdata1 string "WMo_minimized.data"
variable ffname string "../../potential-files/eam/CuAgAuNiPdPtAlPbFeMoTaWMgCoTiZr_Zhou04.eam.alloy"

# Reasonable lattice for WMo
variable a equal 3.165
lattice bcc ${a}
variable Lx equal ${nr}*${a}
variable Ly equal ${nr}*${a}
variable Lz equal ${nr}*${a}

region box block 0 1 0 1 0 1 units lattice 
create_box 1 box 
create_atoms 1 box 
replicate ${nr} ${nr} ${nr} 

pair_style eam/alloy 
pair_coeff * * ${ffname} W
neighbor 2.0 bin
neigh_modify delay 0 every 1 check yes

write_data ${outdata0}

variable pea_avg equal "pe/atoms"
thermo 10
thermo_style custom step v_pea_avg pe lx ly lz press 

dump myDump all custom 50 W.dump id type xu yu zu
dump_modify myDump element W

# Energy minimization
fix myMin all box/relax iso 0.0 vmax 0.001  
min_style cg 
minimize 1e-4 1e-5 1000 10000
unfix myMin

write_data ${outdata1}
