# ----- SETTINGS -----
# Forcefield
	pair_coeff * * ../../potential-files/eam/CuAgAuNiPdPtAlPbFeMoTaWMgCoTiZr_Zhou04.eam.alloy Co Fe Ni

# Collection of atoms
	group alloy type  1 2 3
	
