# Thermo output
	thermo          10
	thermo_style    custom step temp press pe ke etotal vol density
	thermo_modify   flush yes

# ----- INITIAL EQUILIBRATION AT Tlow -----
	velocity        all create ${T} 872392 dist gaussian
	fix             feq all nvt temp ${T} ${T} ${tdamp}
	run             10000
	unfix           feq


