# ----- SETTINGS -----

# Replicate box to produce a substrate on the xz plane
	replicate 4 1 5

# Forcefield
	pair_coeff * * W-Mo.eam.fs W Mo

# Collection of atoms
	group alloy type  1 2
	
