# ----- SETTINGS -----
# Forcefield
	pair_coeff * * ../../potential-files/eam/FeNiCrCoCu-with-ZBL.eam.alloy Co Fe Ni

# Collection of atoms
	group alloy type  1 2 3
	
