# ----- SETTINGS -----
# Forcefield
	pair_coeff * * ${ff}

# Collection of atoms
	group alloy type  1 2 3 4
