# ----- SETTINGS -----
# Forcefield
	pair_coeff * * ../potential-files/eam/CuAgAuNiPdPtAlPbFeMoTaWMgCoTiZr_Zhou04.eam.alloy Al Mo Ti

# Collection of atoms
	group alloy type  1 2 3