# ----- SETTINGS -----

# Forcefield
	pair_coeff * * ../../potential-files/eam/CuAgAuNiPdPtAlPbFeMoTaWMgCoTiZr_Zhou04.eam.alloy Al W Mo

# Collection of atoms
	group alloy type  1 2 3